70
    1    31    30
    2    44    38
    3    59    64
    4     6     3
    5    18    14
    6    33    40
    7    26    27
    8    13    20
    9    12    19
   10    11     4
   11    62    66
   12    66    61
   13    36    40
   14    43    48
   15    49    45
   16    35    31
   17     8     7
   18    33    26
   19     4    11
   20    20    24
   21    39    43
   22    58    58
   23    30    28
   24    40    37
   25    43    41
   26    68    68
   27    48    48
   28    61    60
   29    69    62
   30    29    25
   31    37    42
   32    51    56
   33    37    32
   34    49    55
   35    17    20
   36    44    39
   37    21    28
   38    31    25
   39    36    32
   40    18    19
   41    41    43
   42    67    70
   43    31    32
   44     5     8
   45     1     1
   46    20    25
   47    32    34
   48     3     2
   49    15    15
   50    58    56
   51    47    47
   52    66    68
   53    22    15
   54    43    40
   55    46    41
   56    37    30
   57     9    13
   58    55    49
   59     6     8
   60    57    64
   61    61    63
   62    73    67
   63    25    26
   64    16    17
   65    62    62
   66    22    28
   67    50    45
   68    52    57
   69    11     6
   70     8     8
71
